226 161117
1 2 3 4 72 71 50 49 32 33 48 45 44 42 43 87 89 98 91 101 94 137 138 136 110 109 108 107 106 111 103 64 55 54 53 52 51 56 57 58 59 60 61 62 63 130 132 226 225 224 223 222 221 220 219 218 217 216 215 214 213 212 211 210 209 208 207 206 102 93 100 92 99 90 88 97 96 95 65 17 16 13 12 11 8 5 6 7 9 10 14 15 18 20 22 23 28 31 36 35 34 30 29 27 26 25 24 21 19 67 68 69 70 66 126 124 125 205 204 203 202 201 200 133 134 135 47 46 37 38 39 40 41 144 147 140 139 145 141 149 148 142 150 143 193 194 199 198 197 196 195 192 191 190 189 188 187 186 185 184 183 182 181 180 179 178 177 176 175 174 173 172 171 170 169 168 167 166 165 164 163 162 161 160 159 158 157 156 155 154 153 152 151 146 104 105 112 113 114 115 116 117 118 119 128 127 129 131 123 122 121 120 86 85 84 83 82 81 80 79 78 77 76 75 74 73 
